c description: Graph pigeonhole principle formula on fast_gnp_random_graph(20,10,0.5)
c generator: CNFgen (0.9.0)
c copyright: (C) 2012-2020 Massimo Lauria <massimo.lauria@uniroma1.it>
c url: https://massimolauria.net/cnfgen
c
p cnf 108 589
1 2 3 4 5 0
6 7 8 9 10 11 0
12 13 14 15 16 0
17 18 19 20 21 22 0
23 24 25 0
26 27 28 29 30 31 32 0
33 34 35 36 37 0
38 39 40 41 42 0
43 44 45 46 47 48 49 0
50 51 52 53 54 55 0
56 57 58 59 60 0
61 62 63 64 65 0
66 67 68 69 0
70 71 72 73 74 75 0
76 77 78 79 0
80 81 82 83 84 85 0
86 87 88 89 90 0
91 92 93 94 0
95 96 97 98 99 100 0
101 102 103 104 105 106 107 108 0
-1 -6 0
-1 -12 0
-1 -17 0
-1 -23 0
-1 -33 0
-1 -38 0
-1 -43 0
-1 -50 0
-1 -56 0
-1 -61 0
-1 -70 0
-1 -76 0
-1 -95 0
-1 -101 0
-6 -12 0
-6 -17 0
-6 -23 0
-6 -33 0
-6 -38 0
-6 -43 0
-6 -50 0
-6 -56 0
-6 -61 0
-6 -70 0
-6 -76 0
-6 -95 0
-6 -101 0
-12 -17 0
-12 -23 0
-12 -33 0
-12 -38 0
-12 -43 0
-12 -50 0
-12 -56 0
-12 -61 0
-12 -70 0
-12 -76 0
-12 -95 0
-12 -101 0
-17 -23 0
-17 -33 0
-17 -38 0
-17 -43 0
-17 -50 0
-17 -56 0
-17 -61 0
-17 -70 0
-17 -76 0
-17 -95 0
-17 -101 0
-23 -33 0
-23 -38 0
-23 -43 0
-23 -50 0
-23 -56 0
-23 -61 0
-23 -70 0
-23 -76 0
-23 -95 0
-23 -101 0
-33 -38 0
-33 -43 0
-33 -50 0
-33 -56 0
-33 -61 0
-33 -70 0
-33 -76 0
-33 -95 0
-33 -101 0
-38 -43 0
-38 -50 0
-38 -56 0
-38 -61 0
-38 -70 0
-38 -76 0
-38 -95 0
-38 -101 0
-43 -50 0
-43 -56 0
-43 -61 0
-43 -70 0
-43 -76 0
-43 -95 0
-43 -101 0
-50 -56 0
-50 -61 0
-50 -70 0
-50 -76 0
-50 -95 0
-50 -101 0
-56 -61 0
-56 -70 0
-56 -76 0
-56 -95 0
-56 -101 0
-61 -70 0
-61 -76 0
-61 -95 0
-61 -101 0
-70 -76 0
-70 -95 0
-70 -101 0
-76 -95 0
-76 -101 0
-95 -101 0
-26 -51 0
-26 -80 0
-26 -86 0
-26 -96 0
-26 -102 0
-51 -80 0
-51 -86 0
-51 -96 0
-51 -102 0
-80 -86 0
-80 -96 0
-80 -102 0
-86 -96 0
-86 -102 0
-96 -102 0
-2 -7 0
-2 -13 0
-2 -18 0
-2 -27 0
-2 -44 0
-2 -62 0
-2 -71 0
-2 -87 0
-2 -103 0
-7 -13 0
-7 -18 0
-7 -27 0
-7 -44 0
-7 -62 0
-7 -71 0
-7 -87 0
-7 -103 0
-13 -18 0
-13 -27 0
-13 -44 0
-13 -62 0
-13 -71 0
-13 -87 0
-13 -103 0
-18 -27 0
-18 -44 0
-18 -62 0
-18 -71 0
-18 -87 0
-18 -103 0
-27 -44 0
-27 -62 0
-27 -71 0
-27 -87 0
-27 -103 0
-44 -62 0
-44 -71 0
-44 -87 0
-44 -103 0
-62 -71 0
-62 -87 0
-62 -103 0
-71 -87 0
-71 -103 0
-87 -103 0
-8 -14 0
-8 -24 0
-8 -45 0
-8 -52 0
-8 -81 0
-8 -88 0
-8 -91 0
-8 -97 0
-8 -104 0
-14 -24 0
-14 -45 0
-14 -52 0
-14 -81 0
-14 -88 0
-14 -91 0
-14 -97 0
-14 -104 0
-24 -45 0
-24 -52 0
-24 -81 0
-24 -88 0
-24 -91 0
-24 -97 0
-24 -104 0
-45 -52 0
-45 -81 0
-45 -88 0
-45 -91 0
-45 -97 0
-45 -104 0
-52 -81 0
-52 -88 0
-52 -91 0
-52 -97 0
-52 -104 0
-81 -88 0
-81 -91 0
-81 -97 0
-81 -104 0
-88 -91 0
-88 -97 0
-88 -104 0
-91 -97 0
-91 -104 0
-97 -104 0
-3 -28 0
-3 -34 0
-3 -39 0
-3 -46 0
-3 -57 0
-3 -63 0
-3 -66 0
-3 -72 0
-3 -89 0
-3 -92 0
-3 -98 0
-28 -34 0
-28 -39 0
-28 -46 0
-28 -57 0
-28 -63 0
-28 -66 0
-28 -72 0
-28 -89 0
-28 -92 0
-28 -98 0
-34 -39 0
-34 -46 0
-34 -57 0
-34 -63 0
-34 -66 0
-34 -72 0
-34 -89 0
-34 -92 0
-34 -98 0
-39 -46 0
-39 -57 0
-39 -63 0
-39 -66 0
-39 -72 0
-39 -89 0
-39 -92 0
-39 -98 0
-46 -57 0
-46 -63 0
-46 -66 0
-46 -72 0
-46 -89 0
-46 -92 0
-46 -98 0
-57 -63 0
-57 -66 0
-57 -72 0
-57 -89 0
-57 -92 0
-57 -98 0
-63 -66 0
-63 -72 0
-63 -89 0
-63 -92 0
-63 -98 0
-66 -72 0
-66 -89 0
-66 -92 0
-66 -98 0
-72 -89 0
-72 -92 0
-72 -98 0
-89 -92 0
-89 -98 0
-92 -98 0
-19 -35 0
-19 -47 0
-19 -53 0
-19 -58 0
-19 -77 0
-19 -82 0
-19 -105 0
-35 -47 0
-35 -53 0
-35 -58 0
-35 -77 0
-35 -82 0
-35 -105 0
-47 -53 0
-47 -58 0
-47 -77 0
-47 -82 0
-47 -105 0
-53 -58 0
-53 -77 0
-53 -82 0
-53 -105 0
-58 -77 0
-58 -82 0
-58 -105 0
-77 -82 0
-77 -105 0
-82 -105 0
-20 -29 0
-20 -40 0
-20 -48 0
-20 -54 0
-20 -64 0
-20 -67 0
-20 -83 0
-29 -40 0
-29 -48 0
-29 -54 0
-29 -64 0
-29 -67 0
-29 -83 0
-40 -48 0
-40 -54 0
-40 -64 0
-40 -67 0
-40 -83 0
-48 -54 0
-48 -64 0
-48 -67 0
-48 -83 0
-54 -64 0
-54 -67 0
-54 -83 0
-64 -67 0
-64 -83 0
-67 -83 0
-4 -9 0
-4 -30 0
-4 -36 0
-4 -41 0
-4 -49 0
-4 -68 0
-4 -73 0
-4 -78 0
-4 -93 0
-4 -99 0
-4 -106 0
-9 -30 0
-9 -36 0
-9 -41 0
-9 -49 0
-9 -68 0
-9 -73 0
-9 -78 0
-9 -93 0
-9 -99 0
-9 -106 0
-30 -36 0
-30 -41 0
-30 -49 0
-30 -68 0
-30 -73 0
-30 -78 0
-30 -93 0
-30 -99 0
-30 -106 0
-36 -41 0
-36 -49 0
-36 -68 0
-36 -73 0
-36 -78 0
-36 -93 0
-36 -99 0
-36 -106 0
-41 -49 0
-41 -68 0
-41 -73 0
-41 -78 0
-41 -93 0
-41 -99 0
-41 -106 0
-49 -68 0
-49 -73 0
-49 -78 0
-49 -93 0
-49 -99 0
-49 -106 0
-68 -73 0
-68 -78 0
-68 -93 0
-68 -99 0
-68 -106 0
-73 -78 0
-73 -93 0
-73 -99 0
-73 -106 0
-78 -93 0
-78 -99 0
-78 -106 0
-93 -99 0
-93 -106 0
-99 -106 0
-10 -15 0
-10 -21 0
-10 -31 0
-10 -37 0
-10 -59 0
-10 -69 0
-10 -74 0
-10 -84 0
-10 -90 0
-10 -100 0
-10 -107 0
-15 -21 0
-15 -31 0
-15 -37 0
-15 -59 0
-15 -69 0
-15 -74 0
-15 -84 0
-15 -90 0
-15 -100 0
-15 -107 0
-21 -31 0
-21 -37 0
-21 -59 0
-21 -69 0
-21 -74 0
-21 -84 0
-21 -90 0
-21 -100 0
-21 -107 0
-31 -37 0
-31 -59 0
-31 -69 0
-31 -74 0
-31 -84 0
-31 -90 0
-31 -100 0
-31 -107 0
-37 -59 0
-37 -69 0
-37 -74 0
-37 -84 0
-37 -90 0
-37 -100 0
-37 -107 0
-59 -69 0
-59 -74 0
-59 -84 0
-59 -90 0
-59 -100 0
-59 -107 0
-69 -74 0
-69 -84 0
-69 -90 0
-69 -100 0
-69 -107 0
-74 -84 0
-74 -90 0
-74 -100 0
-74 -107 0
-84 -90 0
-84 -100 0
-84 -107 0
-90 -100 0
-90 -107 0
-100 -107 0
-5 -11 0
-5 -16 0
-5 -22 0
-5 -25 0
-5 -32 0
-5 -42 0
-5 -55 0
-5 -60 0
-5 -65 0
-5 -75 0
-5 -79 0
-5 -85 0
-5 -94 0
-5 -108 0
-11 -16 0
-11 -22 0
-11 -25 0
-11 -32 0
-11 -42 0
-11 -55 0
-11 -60 0
-11 -65 0
-11 -75 0
-11 -79 0
-11 -85 0
-11 -94 0
-11 -108 0
-16 -22 0
-16 -25 0
-16 -32 0
-16 -42 0
-16 -55 0
-16 -60 0
-16 -65 0
-16 -75 0
-16 -79 0
-16 -85 0
-16 -94 0
-16 -108 0
-22 -25 0
-22 -32 0
-22 -42 0
-22 -55 0
-22 -60 0
-22 -65 0
-22 -75 0
-22 -79 0
-22 -85 0
-22 -94 0
-22 -108 0
-25 -32 0
-25 -42 0
-25 -55 0
-25 -60 0
-25 -65 0
-25 -75 0
-25 -79 0
-25 -85 0
-25 -94 0
-25 -108 0
-32 -42 0
-32 -55 0
-32 -60 0
-32 -65 0
-32 -75 0
-32 -79 0
-32 -85 0
-32 -94 0
-32 -108 0
-42 -55 0
-42 -60 0
-42 -65 0
-42 -75 0
-42 -79 0
-42 -85 0
-42 -94 0
-42 -108 0
-55 -60 0
-55 -65 0
-55 -75 0
-55 -79 0
-55 -85 0
-55 -94 0
-55 -108 0
-60 -65 0
-60 -75 0
-60 -79 0
-60 -85 0
-60 -94 0
-60 -108 0
-65 -75 0
-65 -79 0
-65 -85 0
-65 -94 0
-65 -108 0
-75 -79 0
-75 -85 0
-75 -94 0
-75 -108 0
-79 -85 0
-79 -94 0
-79 -108 0
-85 -94 0
-85 -108 0
-94 -108 0